(declare-const c_0 Real)
(declare-const c_1 Real)
(declare-const c_2 Real)
(declare-const c_3 Real)
(declare-const c_4 Real)
(declare-const c_5 Real)
(declare-const c_6 Real)
(declare-const c_7 Real)
(declare-const c_8 Real)
(declare-const c_9 Real)
(declare-const c_10 Real)
(declare-const c_11 Real)
(declare-const c_12 Real)
(declare-const c_13 Real)
(declare-const c_14 Real)
(declare-const c_15 Real)
(declare-const c_16 Real)
(declare-const c_17 Real)
(declare-const c_18 Real)
(declare-const c_19 Real)
(declare-const c_20 Real)
(declare-const c_21 Real)
(declare-const c_22 Real)
(declare-const c_23 Real)
(declare-const c_24 Real)
(declare-const c_25 Real)
(declare-const c_26 Real)
(declare-const c_27 Real)
(declare-const c_28 Real)
(declare-const c_29 Real)
(declare-const c_30 Real)
(declare-const c_31 Real)
(declare-const c_32 Real)
(declare-const c_33 Real)
(declare-const c_34 Real)
(declare-const c_35 Real)
(declare-const c_36 Real)
(declare-const c_37 Real)
(declare-const c_38 Real)
(declare-const c_39 Real)
(declare-const c_40 Real)
(declare-const c_41 Real)
(declare-const c_42 Real)
(declare-const c_43 Real)
(declare-const c_44 Real)
(declare-const c_45 Real)
(declare-const c_46 Real)
(declare-const c_47 Real)
(declare-const c_48 Real)
(declare-const c_49 Real)
(declare-const c_50 Real)
(declare-const c_51 Real)
(declare-const c_52 Real)
(declare-const c_53 Real)
(declare-const c_54 Real)
(declare-const c_55 Real)
(declare-const c_56 Real)
(declare-const c_57 Real)
(declare-const c_58 Real)
(declare-const c_59 Real)
(declare-const c_60 Real)
(declare-const c_61 Real)
(declare-const c_62 Real)
(declare-const c_63 Real)
(declare-const c_64 Real)
(declare-const c_65 Real)
(declare-const c_66 Real)
(declare-const c_67 Real)
(declare-const c_68 Real)
(declare-const c_69 Real)
(declare-const c_70 Real)
(declare-const c_71 Real)
(declare-const c_72 Real)
(declare-const c_73 Real)
(declare-const c_74 Real)
(declare-const c_75 Real)
(declare-const c_76 Real)
(declare-const c_77 Real)
(declare-const c_78 Real)
(declare-const c_79 Real)
(declare-const c_80 Real)
(declare-const c_81 Real)
(declare-const c_82 Real)
(declare-const c_83 Real)
(declare-const c_84 Real)
(declare-const c_85 Real)
(declare-const c_86 Real)
(declare-const c_87 Real)
(declare-const c_88 Real)
(declare-const c_89 Real)
(declare-const c_90 Real)
(declare-const c_91 Real)
(declare-const c_92 Real)
(declare-const c_93 Real)
(declare-const c_94 Real)
(declare-const c_95 Real)
(declare-const c_96 Real)
(declare-const c_97 Real)
(declare-const c_98 Real)
(declare-const c_99 Real)
(declare-const c_100 Real)
(declare-const c_101 Real)
(declare-const c_102 Real)
(declare-const c_103 Real)
(declare-const c_104 Real)
(declare-const c_105 Real)
(declare-const c_106 Real)
(declare-const c_107 Real)
(declare-const c_108 Real)
(declare-const c_109 Real)
(declare-const c_110 Real)
(declare-const c_111 Real)
(declare-const c_112 Real)
(declare-const c_113 Real)
(declare-const c_114 Real)
(declare-const c_115 Real)
(declare-const c_116 Real)
(declare-const c_117 Real)
(declare-const c_118 Real)
(declare-const c_119 Real)
(declare-const c_120 Real)
(declare-const c_121 Real)
(declare-const c_122 Real)
(declare-const c_123 Real)
(declare-const c_124 Real)
(declare-const c_125 Real)
(declare-const c_126 Real)
(declare-const c_127 Real)
(declare-const c_128 Real)
(declare-const c_129 Real)
(declare-const c_130 Real)
(declare-const c_131 Real)
(declare-const c_132 Real)
(declare-const c_133 Real)
(declare-const c_134 Real)
(declare-const c_135 Real)
(declare-const c_136 Real)
(declare-const c_137 Real)
(declare-const c_138 Real)
(declare-const c_139 Real)
(declare-const c_140 Real)
(declare-const c_141 Real)
(declare-const c_142 Real)
(declare-const c_143 Real)
(declare-const c_144 Real)
(declare-const c_145 Real)
(declare-const c_146 Real)
(declare-const c_147 Real)
(declare-const c_148 Real)
(declare-const c_149 Real)
(declare-const c_150 Real)
(declare-const c_151 Real)
(declare-const c_152 Real)
(declare-const c_153 Real)
(declare-const c_154 Real)
(declare-const c_155 Real)
(declare-const c_156 Real)
(declare-const c_157 Real)
(declare-const c_158 Real)
(declare-const c_159 Real)
(declare-const c_160 Real)
(declare-const c_161 Real)
(declare-const c_162 Real)
(declare-const c_163 Real)
(declare-const c_164 Real)
(declare-const c_165 Real)
(declare-const c_166 Real)
(declare-const c_167 Real)
(declare-const c_168 Real)
(declare-const c_169 Real)
(declare-const c_170 Real)
(declare-const c_171 Real)
(declare-const c_172 Real)
(declare-const c_173 Real)
(declare-const c_174 Real)
(declare-const c_175 Real)
(declare-const c_176 Real)
(declare-const c_177 Real)
(declare-const c_178 Real)
(declare-const c_179 Real)
(declare-const c_180 Real)
(declare-const c_181 Real)
(declare-const c_182 Real)
(declare-const c_183 Real)
(declare-const c_184 Real)
(declare-const c_185 Real)
(declare-const c_186 Real)
(declare-const c_187 Real)
(declare-const c_188 Real)
(declare-const c_189 Real)
(declare-const c_190 Real)
(declare-const c_191 Real)
(declare-const c_192 Real)
(declare-const c_193 Real)
(declare-const c_194 Real)
(declare-const c_195 Real)
(declare-const c_196 Real)
(declare-const c_197 Real)
(declare-const c_198 Real)
(declare-const c_199 Real)
(declare-const c_200 Real)
(declare-const c_201 Real)
(declare-const c_202 Real)
(declare-const c_203 Real)
(declare-const c_204 Real)
(declare-const c_205 Real)
(declare-const c_206 Real)
(declare-const c_207 Real)
(declare-const c_208 Real)
(declare-const c_209 Real)
(assert (forall ((r2 Real) (x Real) (y Real) (r1 Real) ) (=> (and (>= (+ (* 3 1) (* (- 1) r2 ) ) 0) (>= (+ (* 3 r1 ) (* (- 1) r2 ) ) 0) (>= (+ (* 3 1) (* (- 1) r1 ) ) 0) (>= (+ (* (- 1) r1 ) (* 3 r2 ) ) 0) (>= (+ (* 5 1) (* (- 1) x ) ) 0) (>= (+ (* (- 5) 1) (* 1 x ) ) 0) (>= (+ (* 3 1) (* (- 1) y ) ) 0) (>= (+ (* (- 3) 1) (* 1 y ) ) 0) (>= (* (- 1) r1 ) 0) (>= (* 1 r1 ) 0) (>= (* (- 1) r2 ) 0) (>= (* 1 r2 ) 0) ) (>= (+ (* 1 c_0 ) (* 1 c_1 r1 ) (* 1 c_10 x ) (* 1 c_11 x y ) (* 1 c_12 x x ) (* 1 c_13 y ) (* 1 c_14 y y ) (* 1 c_2 r1 r2 ) (* 1 c_3 r1 x ) (* 1 c_4 r1 y ) (* 1 c_5 r1 r1 ) (* 1 c_6 r2 ) (* 1 c_7 r2 x ) (* 1 c_8 r2 y ) (* 1 c_9 r2 r2 ) ) 0) )))
(assert (forall ((r2 Real) (x Real) (y Real) (r1 Real) ) (=> (and (>= (+ (* 1 x ) (* (- 1) y ) ) 0) (>= (+ (* 3 1) (* (- 1) r2 ) ) 0) (>= (+ (* 3 r1 ) (* (- 1) r2 ) ) 0) (>= (+ (* 3 1) (* (- 1) r1 ) ) 0) (>= (+ (* (- 1) r1 ) (* 3 r2 ) ) 0) ) (>= (+ (* (- 1) 1) (* 1 c_0 ) (* 1 c_1 r1 ) (* 1 c_10 x ) (* 1 c_11 x y ) (* 1 c_12 x x ) (* 1 c_13 y ) (* 1 c_14 y y ) (* (- 1) c_15 ) (* (- 1) c_16 r1 ) (* (- 1) c_17 r1 r2 ) (* (- 1) c_18 r1 x ) (* (- 1) c_19 r1 y ) (* 1 c_2 r1 r2 ) (* (- 1) c_20 r1 r1 ) (* (- 1) c_21 r2 ) (* (- 1) c_22 r2 x ) (* (- 1) c_23 r2 y ) (* (- 1) c_24 r2 r2 ) (* (- 1) c_25 x ) (* (- 1) c_26 x y ) (* (- 1) c_27 x x ) (* (- 1) c_28 y ) (* (- 1) c_29 y y ) (* 1 c_3 r1 x ) (* 1 c_4 r1 y ) (* 1 c_5 r1 r1 ) (* 1 c_6 r2 ) (* 1 c_7 r2 x ) (* 1 c_8 r2 y ) (* 1 c_9 r2 r2 ) ) 0) )))
(assert (forall ((r2 Real) (x Real) (y Real) (r1 Real) ) (=> (and (>= (+ (* 1 x ) (* (- 1) y ) ) 0) (>= (+ (* 3 1) (* (- 1) r2 ) ) 0) (>= (+ (* 3 r1 ) (* (- 1) r2 ) ) 0) (>= (+ (* 3 1) (* (- 1) r1 ) ) 0) (>= (+ (* (- 1) r1 ) (* 3 r2 ) ) 0) ) (>= (+ (* 1 c_15 ) (* 1 c_16 r1 ) (* 1 c_17 r1 r2 ) (* 1 c_18 r1 x ) (* 1 c_19 r1 y ) (* 1 c_20 r1 r1 ) (* 1 c_21 r2 ) (* 1 c_22 r2 x ) (* 1 c_23 r2 y ) (* 1 c_24 r2 r2 ) (* 1 c_25 x ) (* 1 c_26 x y ) (* 1 c_27 x x ) (* 1 c_28 y ) (* 1 c_29 y y ) ) 0) )))
(assert (forall ((r2 Real) (x Real) (y Real) (r1 Real) ) (=> (and (>= (+ (* (- 1) 1) (* (- 1) x ) (* 1 y ) ) 0) (>= (+ (* 3 1) (* (- 1) r2 ) ) 0) (>= (+ (* 3 r1 ) (* (- 1) r2 ) ) 0) (>= (+ (* 3 1) (* (- 1) r1 ) ) 0) (>= (+ (* (- 1) r1 ) (* 3 r2 ) ) 0) ) (>= (+ (* (- 1) 1) (* 1 c_0 ) (* 1 c_1 r1 ) (* 1 c_10 x ) (* 1 c_11 x y ) (* 1 c_12 x x ) (* 1 c_13 y ) (* 1 c_14 y y ) (* (- 1) c_165 ) (* (- 1) c_166 r1 ) (* (- 1) c_167 r1 r2 ) (* (- 1) c_168 r1 x ) (* (- 1) c_169 r1 y ) (* (- 1) c_170 r1 r1 ) (* (- 1) c_171 r2 ) (* (- 1) c_172 r2 x ) (* (- 1) c_173 r2 y ) (* (- 1) c_174 r2 r2 ) (* (- 1) c_175 x ) (* (- 1) c_176 x y ) (* (- 1) c_177 x x ) (* (- 1) c_178 y ) (* (- 1) c_179 y y ) (* 1 c_2 r1 r2 ) (* 1 c_3 r1 x ) (* 1 c_4 r1 y ) (* 1 c_5 r1 r1 ) (* 1 c_6 r2 ) (* 1 c_7 r2 x ) (* 1 c_8 r2 y ) (* 1 c_9 r2 r2 ) ) 0) )))
(assert (forall ((r2 Real) (x Real) (y Real) (r1 Real) ) (=> (and (>= (+ (* (- 1) 1) (* (- 1) x ) (* 1 y ) ) 0) (>= (+ (* 3 1) (* (- 1) r2 ) ) 0) (>= (+ (* 3 r1 ) (* (- 1) r2 ) ) 0) (>= (+ (* 3 1) (* (- 1) r1 ) ) 0) (>= (+ (* (- 1) r1 ) (* 3 r2 ) ) 0) ) (>= (+ (* 1 c_165 ) (* 1 c_166 r1 ) (* 1 c_167 r1 r2 ) (* 1 c_168 r1 x ) (* 1 c_169 r1 y ) (* 1 c_170 r1 r1 ) (* 1 c_171 r2 ) (* 1 c_172 r2 x ) (* 1 c_173 r2 y ) (* 1 c_174 r2 r2 ) (* 1 c_175 x ) (* 1 c_176 x y ) (* 1 c_177 x x ) (* 1 c_178 y ) (* 1 c_179 y y ) ) 0) )))
(assert (forall ((r2 Real) (x Real) (y Real) (r1 Real) ) (=> (and (>= (+ (* 3 1) (* (- 1) r2 ) ) 0) (>= (+ (* 1 x ) (* (- 1) y ) ) 0) (>= (+ (* 3 1) (* (- 1) r1 ) ) 0) (>= (+ (* (- 1) r1 ) (* 3 r2 ) ) 0) (>= (+ (* 3 r1 ) (* (- 1) r2 ) ) 0) ) (>= (+ (* (- 1) 1) (* 1 c_15 ) (* 1 c_16 r1 ) (* 1 c_17 r1 r2 ) (* 1 c_18 r1 x ) (* 1 c_19 r1 y ) (* (- 1) c_195 ) (* (- 2) c_196 ) (* (- 2) c_197 r2 ) (* (- 2) c_198 x ) (* (- 2) c_199 y ) (* 1 c_20 r1 r1 ) (* (/ (- 14) 3) c_200 ) (* (- 1) c_201 r2 ) (* (- 1) c_202 r2 x ) (* (- 1) c_203 r2 y ) (* (- 1) c_204 r2 r2 ) (* (- 1) c_205 x ) (* (- 1) c_206 x y ) (* (- 1) c_207 x x ) (* (- 1) c_208 y ) (* (- 1) c_209 y y ) (* 1 c_21 r2 ) (* 1 c_22 r2 x ) (* 1 c_23 r2 y ) (* 1 c_24 r2 r2 ) (* 1 c_25 x ) (* 1 c_26 x y ) (* 1 c_27 x x ) (* 1 c_28 y ) (* 1 c_29 y y ) ) 0) )))
(assert (forall ((r2 Real) (x Real) (y Real) (r1 Real) ) (=> (and (>= (+ (* 3 1) (* (- 1) r2 ) ) 0) (>= (+ (* 1 x ) (* (- 1) y ) ) 0) (>= (+ (* 3 1) (* (- 1) r1 ) ) 0) (>= (+ (* (- 1) r1 ) (* 3 r2 ) ) 0) (>= (+ (* 3 r1 ) (* (- 1) r2 ) ) 0) ) (>= (+ (* 1 c_195 ) (* 2 c_196 ) (* 2 c_197 r2 ) (* 2 c_198 x ) (* 2 c_199 y ) (* (/ 14 3) c_200 ) (* 1 c_201 r2 ) (* 1 c_202 r2 x ) (* 1 c_203 r2 y ) (* 1 c_204 r2 r2 ) (* 1 c_205 x ) (* 1 c_206 x y ) (* 1 c_207 x x ) (* 1 c_208 y ) (* 1 c_209 y y ) ) 0) )))
(assert (forall ((r2 Real) (x Real) (y Real) (r1 Real) ) (=> (and (>= (+ (* 3 1) (* (- 1) r2 ) ) 0) (>= (+ (* 1 x ) (* (- 1) y ) ) 0) (>= (+ (* 3 1) (* (- 1) r1 ) ) 0) (>= (+ (* (- 1) 1) (* 1 r1 ) ) 0) (>= (+ (* (- 1) 1) (* 1 r2 ) ) 0) ) (>= (+ (* (/ (- 1) 10) c_100 x ) (* (/ (- 1) 10) c_101 x y ) (* (/ (- 1) 10) c_102 x x ) (* (/ (- 1) 10) c_103 y ) (* (/ (- 1) 10) c_104 y y ) (* (/ (- 1) 10) c_105 ) (* (/ (- 1) 10) c_106 r1 ) (* (/ (- 1) 10) c_107 r1 r2 ) (* (/ (- 1) 10) c_108 r1 x ) (* (/ (- 1) 10) c_109 r1 y ) (* (/ (- 1) 10) c_110 r1 r1 ) (* (/ (- 1) 10) c_111 r2 ) (* (/ (- 1) 10) c_112 r2 x ) (* (/ (- 1) 10) c_113 r2 y ) (* (/ (- 1) 10) c_114 r2 r2 ) (* (/ (- 1) 10) c_115 x ) (* (/ (- 1) 10) c_116 x y ) (* (/ (- 1) 10) c_117 x x ) (* (/ (- 1) 10) c_118 y ) (* (/ (- 1) 10) c_119 y y ) (* (/ (- 1) 10) c_120 ) (* (/ (- 1) 10) c_121 r1 ) (* (/ (- 1) 10) c_122 r1 r2 ) (* (/ (- 1) 10) c_123 r1 x ) (* (/ (- 1) 10) c_124 r1 y ) (* (/ (- 1) 10) c_125 r1 r1 ) (* (/ (- 1) 10) c_126 r2 ) (* (/ (- 1) 10) c_127 r2 x ) (* (/ (- 1) 10) c_128 r2 y ) (* (/ (- 1) 10) c_129 r2 r2 ) (* (/ (- 1) 10) c_130 x ) (* (/ (- 1) 10) c_131 x y ) (* (/ (- 1) 10) c_132 x x ) (* (/ (- 1) 10) c_133 y ) (* (/ (- 1) 10) c_134 y y ) (* (/ (- 1) 10) c_135 ) (* (/ (- 1) 10) c_136 r1 ) (* (/ (- 1) 10) c_137 r1 r2 ) (* (/ (- 1) 10) c_138 r1 x ) (* (/ (- 1) 10) c_139 r1 y ) (* (/ (- 1) 10) c_140 r1 r1 ) (* (/ (- 1) 10) c_141 r2 ) (* (/ (- 1) 10) c_142 r2 x ) (* (/ (- 1) 10) c_143 r2 y ) (* (/ (- 1) 10) c_144 r2 r2 ) (* (/ (- 1) 10) c_145 x ) (* (/ (- 1) 10) c_146 x y ) (* (/ (- 1) 10) c_147 x x ) (* (/ (- 1) 10) c_148 y ) (* (/ (- 1) 10) c_149 y y ) (* (/ (- 1) 10) c_150 ) (* (/ (- 1) 10) c_151 r1 ) (* (/ (- 1) 10) c_152 r1 r2 ) (* (/ (- 1) 10) c_153 r1 x ) (* (/ (- 1) 10) c_154 r1 y ) (* (/ (- 1) 10) c_155 r1 r1 ) (* (/ (- 1) 10) c_156 r2 ) (* (/ (- 1) 10) c_157 r2 x ) (* (/ (- 1) 10) c_158 r2 y ) (* (/ (- 1) 10) c_159 r2 r2 ) (* (/ (- 1) 10) c_160 x ) (* (/ (- 1) 10) c_161 x y ) (* (/ (- 1) 10) c_162 x x ) (* (/ (- 1) 10) c_163 y ) (* (/ (- 1) 10) c_164 y y ) (* (/ (- 1) 10) c_180 ) (* (/ (- 1) 10) c_181 r1 ) (* (/ (- 1) 10) c_182 r1 r2 ) (* (/ (- 1) 10) c_183 r1 x ) (* (/ (- 1) 10) c_184 r1 y ) (* (/ (- 1) 10) c_185 r1 r1 ) (* (/ (- 1) 10) c_186 r2 ) (* (/ (- 1) 10) c_187 r2 x ) (* (/ (- 1) 10) c_188 r2 y ) (* (/ (- 1) 10) c_189 r2 r2 ) (* (/ (- 1) 10) c_190 x ) (* (/ (- 1) 10) c_191 x y ) (* (/ (- 1) 10) c_192 x x ) (* (/ (- 1) 10) c_193 y ) (* (/ (- 1) 10) c_194 y y ) (* 1 c_30 ) (* 1 c_31 r1 ) (* 1 c_32 r1 r2 ) (* 1 c_33 r1 x ) (* 1 c_34 r1 y ) (* 1 c_35 r1 r1 ) (* 1 c_36 r2 ) (* 1 c_37 r2 x ) (* 1 c_38 r2 y ) (* 1 c_39 r2 r2 ) (* 1 c_40 x ) (* 1 c_41 x y ) (* 1 c_42 x x ) (* 1 c_43 y ) (* 1 c_44 y y ) (* (/ (- 1) 5) c_45 ) (* (/ (- 1) 5) c_46 r1 ) (* (/ (- 1) 5) c_47 r1 r2 ) (* (/ (- 1) 5) c_48 r1 x ) (* (/ (- 1) 5) c_49 r1 y ) (* (/ (- 1) 5) c_50 r1 r1 ) (* (/ (- 1) 5) c_51 r2 ) (* (/ (- 1) 5) c_52 r2 x ) (* (/ (- 1) 5) c_53 r2 y ) (* (/ (- 1) 5) c_54 r2 r2 ) (* (/ (- 1) 5) c_55 x ) (* (/ (- 1) 5) c_56 x y ) (* (/ (- 1) 5) c_57 x x ) (* (/ (- 1) 5) c_58 y ) (* (/ (- 1) 5) c_59 y y ) (* (/ (- 1) 10) c_60 ) (* (/ (- 1) 10) c_61 r1 ) (* (/ (- 1) 10) c_62 r1 r2 ) (* (/ (- 1) 10) c_63 r1 x ) (* (/ (- 1) 10) c_64 r1 y ) (* (/ (- 1) 10) c_65 r1 r1 ) (* (/ (- 1) 10) c_66 r2 ) (* (/ (- 1) 10) c_67 r2 x ) (* (/ (- 1) 10) c_68 r2 y ) (* (/ (- 1) 10) c_69 r2 r2 ) (* (/ (- 1) 10) c_70 x ) (* (/ (- 1) 10) c_71 x y ) (* (/ (- 1) 10) c_72 x x ) (* (/ (- 1) 10) c_73 y ) (* (/ (- 1) 10) c_74 y y ) (* (/ (- 1) 10) c_75 ) (* (/ (- 1) 10) c_76 r1 ) (* (/ (- 1) 10) c_77 r1 r2 ) (* (/ (- 1) 10) c_78 r1 x ) (* (/ (- 1) 10) c_79 r1 y ) (* (/ (- 1) 10) c_80 r1 r1 ) (* (/ (- 1) 10) c_81 r2 ) (* (/ (- 1) 10) c_82 r2 x ) (* (/ (- 1) 10) c_83 r2 y ) (* (/ (- 1) 10) c_84 r2 r2 ) (* (/ (- 1) 10) c_85 x ) (* (/ (- 1) 10) c_86 x y ) (* (/ (- 1) 10) c_87 x x ) (* (/ (- 1) 10) c_88 y ) (* (/ (- 1) 10) c_89 y y ) (* (/ (- 1) 10) c_90 ) (* (/ (- 1) 10) c_91 r1 ) (* (/ (- 1) 10) c_92 r1 r2 ) (* (/ (- 1) 10) c_93 r1 x ) (* (/ (- 1) 10) c_94 r1 y ) (* (/ (- 1) 10) c_95 r1 r1 ) (* (/ (- 1) 10) c_96 r2 ) (* (/ (- 1) 10) c_97 r2 x ) (* (/ (- 1) 10) c_98 r2 y ) (* (/ (- 1) 10) c_99 r2 r2 ) ) 0) )))
(assert (forall ((r2 Real) (x Real) (y Real) (r1 Real) ) (=> (and (>= (+ (* 3 1) (* (- 1) r2 ) ) 0) (>= (+ (* 1 x ) (* (- 1) y ) ) 0) (>= (+ (* 3 1) (* (- 1) r1 ) ) 0) (>= (+ (* (- 1) 1) (* 1 r1 ) ) 0) (>= (+ (* (- 1) 1) (* 1 r2 ) ) 0) ) (>= (+ (* (/ 1 10) c_100 x ) (* (/ 1 10) c_101 x y ) (* (/ 1 10) c_102 x x ) (* (/ 1 10) c_103 y ) (* (/ 1 10) c_104 y y ) (* (/ 1 10) c_105 ) (* (/ 1 10) c_106 r1 ) (* (/ 1 10) c_107 r1 r2 ) (* (/ 1 10) c_108 r1 x ) (* (/ 1 10) c_109 r1 y ) (* (/ 1 10) c_110 r1 r1 ) (* (/ 1 10) c_111 r2 ) (* (/ 1 10) c_112 r2 x ) (* (/ 1 10) c_113 r2 y ) (* (/ 1 10) c_114 r2 r2 ) (* (/ 1 10) c_115 x ) (* (/ 1 10) c_116 x y ) (* (/ 1 10) c_117 x x ) (* (/ 1 10) c_118 y ) (* (/ 1 10) c_119 y y ) (* (/ 1 10) c_120 ) (* (/ 1 10) c_121 r1 ) (* (/ 1 10) c_122 r1 r2 ) (* (/ 1 10) c_123 r1 x ) (* (/ 1 10) c_124 r1 y ) (* (/ 1 10) c_125 r1 r1 ) (* (/ 1 10) c_126 r2 ) (* (/ 1 10) c_127 r2 x ) (* (/ 1 10) c_128 r2 y ) (* (/ 1 10) c_129 r2 r2 ) (* (/ 1 10) c_130 x ) (* (/ 1 10) c_131 x y ) (* (/ 1 10) c_132 x x ) (* (/ 1 10) c_133 y ) (* (/ 1 10) c_134 y y ) (* (/ 1 10) c_135 ) (* (/ 1 10) c_136 r1 ) (* (/ 1 10) c_137 r1 r2 ) (* (/ 1 10) c_138 r1 x ) (* (/ 1 10) c_139 r1 y ) (* (/ 1 10) c_140 r1 r1 ) (* (/ 1 10) c_141 r2 ) (* (/ 1 10) c_142 r2 x ) (* (/ 1 10) c_143 r2 y ) (* (/ 1 10) c_144 r2 r2 ) (* (/ 1 10) c_145 x ) (* (/ 1 10) c_146 x y ) (* (/ 1 10) c_147 x x ) (* (/ 1 10) c_148 y ) (* (/ 1 10) c_149 y y ) (* (/ 1 10) c_150 ) (* (/ 1 10) c_151 r1 ) (* (/ 1 10) c_152 r1 r2 ) (* (/ 1 10) c_153 r1 x ) (* (/ 1 10) c_154 r1 y ) (* (/ 1 10) c_155 r1 r1 ) (* (/ 1 10) c_156 r2 ) (* (/ 1 10) c_157 r2 x ) (* (/ 1 10) c_158 r2 y ) (* (/ 1 10) c_159 r2 r2 ) (* (/ 1 10) c_160 x ) (* (/ 1 10) c_161 x y ) (* (/ 1 10) c_162 x x ) (* (/ 1 10) c_163 y ) (* (/ 1 10) c_164 y y ) (* (/ 1 10) c_180 ) (* (/ 1 10) c_181 r1 ) (* (/ 1 10) c_182 r1 r2 ) (* (/ 1 10) c_183 r1 x ) (* (/ 1 10) c_184 r1 y ) (* (/ 1 10) c_185 r1 r1 ) (* (/ 1 10) c_186 r2 ) (* (/ 1 10) c_187 r2 x ) (* (/ 1 10) c_188 r2 y ) (* (/ 1 10) c_189 r2 r2 ) (* (/ 1 10) c_190 x ) (* (/ 1 10) c_191 x y ) (* (/ 1 10) c_192 x x ) (* (/ 1 10) c_193 y ) (* (/ 1 10) c_194 y y ) (* (/ 1 5) c_45 ) (* (/ 1 5) c_46 r1 ) (* (/ 1 5) c_47 r1 r2 ) (* (/ 1 5) c_48 r1 x ) (* (/ 1 5) c_49 r1 y ) (* (/ 1 5) c_50 r1 r1 ) (* (/ 1 5) c_51 r2 ) (* (/ 1 5) c_52 r2 x ) (* (/ 1 5) c_53 r2 y ) (* (/ 1 5) c_54 r2 r2 ) (* (/ 1 5) c_55 x ) (* (/ 1 5) c_56 x y ) (* (/ 1 5) c_57 x x ) (* (/ 1 5) c_58 y ) (* (/ 1 5) c_59 y y ) (* (/ 1 10) c_60 ) (* (/ 1 10) c_61 r1 ) (* (/ 1 10) c_62 r1 r2 ) (* (/ 1 10) c_63 r1 x ) (* (/ 1 10) c_64 r1 y ) (* (/ 1 10) c_65 r1 r1 ) (* (/ 1 10) c_66 r2 ) (* (/ 1 10) c_67 r2 x ) (* (/ 1 10) c_68 r2 y ) (* (/ 1 10) c_69 r2 r2 ) (* (/ 1 10) c_70 x ) (* (/ 1 10) c_71 x y ) (* (/ 1 10) c_72 x x ) (* (/ 1 10) c_73 y ) (* (/ 1 10) c_74 y y ) (* (/ 1 10) c_75 ) (* (/ 1 10) c_76 r1 ) (* (/ 1 10) c_77 r1 r2 ) (* (/ 1 10) c_78 r1 x ) (* (/ 1 10) c_79 r1 y ) (* (/ 1 10) c_80 r1 r1 ) (* (/ 1 10) c_81 r2 ) (* (/ 1 10) c_82 r2 x ) (* (/ 1 10) c_83 r2 y ) (* (/ 1 10) c_84 r2 r2 ) (* (/ 1 10) c_85 x ) (* (/ 1 10) c_86 x y ) (* (/ 1 10) c_87 x x ) (* (/ 1 10) c_88 y ) (* (/ 1 10) c_89 y y ) (* (/ 1 10) c_90 ) (* (/ 1 10) c_91 r1 ) (* (/ 1 10) c_92 r1 r2 ) (* (/ 1 10) c_93 r1 x ) (* (/ 1 10) c_94 r1 y ) (* (/ 1 10) c_95 r1 r1 ) (* (/ 1 10) c_96 r2 ) (* (/ 1 10) c_97 r2 x ) (* (/ 1 10) c_98 r2 y ) (* (/ 1 10) c_99 r2 r2 ) ) 0) )))
(assert (forall ((r2 Real) (x Real) (y Real) (r1 Real) ) (=> (and (>= (+ (* 3 1) (* (- 1) r2 ) ) 0) (>= (+ (* 1 x ) (* (- 1) y ) ) 0) (>= (+ (* 3 1) (* (- 1) r1 ) ) 0) (>= (+ (* (- 1) 1) (* 1 r1 ) ) 0) (>= (+ (* (- 1) 1) (* 1 r2 ) ) 0) ) (>= (+ (* (- 1) 1) (* (- 1) c_150 ) (* (- 1) c_151 r1 ) (* (- 1) c_152 r1 r2 ) (* (- 1) c_153 r1 x ) (* (- 1) c_154 r1 y ) (* (- 1) c_154 r1 r1 ) (* (- 1) c_155 r1 r1 ) (* (- 1) c_156 r2 ) (* (- 1) c_157 r2 x ) (* (- 1) c_158 r1 r2 ) (* (- 1) c_158 r2 y ) (* (- 1) c_159 r2 r2 ) (* (- 1) c_160 x ) (* (- 1) c_161 r1 x ) (* (- 1) c_161 x y ) (* (- 1) c_162 x x ) (* (- 1) c_163 r1 ) (* (- 1) c_163 y ) (* (- 2) c_164 r1 y ) (* (- 1) c_164 r1 r1 ) (* (- 1) c_164 y y ) (* 1 c_45 ) (* 1 c_46 r1 ) (* 1 c_47 r1 r2 ) (* 1 c_48 r1 x ) (* 1 c_49 r1 y ) (* 1 c_50 r1 r1 ) (* 1 c_51 r2 ) (* 1 c_52 r2 x ) (* 1 c_53 r2 y ) (* 1 c_54 r2 r2 ) (* 1 c_55 x ) (* 1 c_56 x y ) (* 1 c_57 x x ) (* 1 c_58 y ) (* 1 c_59 y y ) ) 0) )))
(assert (forall ((r2 Real) (x Real) (y Real) (r1 Real) ) (=> (and (>= (+ (* 3 1) (* (- 1) r2 ) ) 0) (>= (+ (* 1 x ) (* (- 1) y ) ) 0) (>= (+ (* 3 1) (* (- 1) r1 ) ) 0) (>= (+ (* (- 1) 1) (* 1 r1 ) ) 0) (>= (+ (* (- 1) 1) (* 1 r2 ) ) 0) ) (>= (+ (* 1 c_150 ) (* 1 c_151 r1 ) (* 1 c_152 r1 r2 ) (* 1 c_153 r1 x ) (* 1 c_154 r1 y ) (* 1 c_155 r1 r1 ) (* 1 c_156 r2 ) (* 1 c_157 r2 x ) (* 1 c_158 r2 y ) (* 1 c_159 r2 r2 ) (* 1 c_160 x ) (* 1 c_161 x y ) (* 1 c_162 x x ) (* 1 c_163 y ) (* 1 c_164 y y ) ) 0) )))
(assert (forall ((r2 Real) (x Real) (y Real) (r1 Real) ) (=> (and (>= (+ (* 3 1) (* (- 1) r2 ) ) 0) (>= (+ (* 1 x ) (* (- 1) y ) ) 0) (>= (+ (* 3 1) (* (- 1) r1 ) ) 0) (>= (+ (* (- 1) 1) (* 1 r1 ) ) 0) (>= (+ (* (- 1) 1) (* 1 r2 ) ) 0) ) (>= (+ (* (- 1) 1) (* (- 1) c_150 ) (* (- 1) c_151 r1 ) (* (- 1) c_152 r1 r2 ) (* (- 1) c_153 r1 r2 ) (* (- 1) c_153 r1 x ) (* (- 1) c_154 r1 y ) (* (- 1) c_155 r1 r1 ) (* (- 1) c_156 r2 ) (* (- 1) c_157 r2 x ) (* (- 1) c_157 r2 r2 ) (* (- 1) c_158 r2 y ) (* (- 1) c_159 r2 r2 ) (* (- 1) c_160 r2 ) (* (- 1) c_160 x ) (* (- 1) c_161 r2 y ) (* (- 1) c_161 x y ) (* (- 2) c_162 r2 x ) (* (- 1) c_162 r2 r2 ) (* (- 1) c_162 x x ) (* (- 1) c_163 y ) (* (- 1) c_164 y y ) (* 1 c_60 ) (* 1 c_61 r1 ) (* 1 c_62 r1 r2 ) (* 1 c_63 r1 x ) (* 1 c_64 r1 y ) (* 1 c_65 r1 r1 ) (* 1 c_66 r2 ) (* 1 c_67 r2 x ) (* 1 c_68 r2 y ) (* 1 c_69 r2 r2 ) (* 1 c_70 x ) (* 1 c_71 x y ) (* 1 c_72 x x ) (* 1 c_73 y ) (* 1 c_74 y y ) ) 0) )))
(assert (forall ((r2 Real) (x Real) (y Real) (r1 Real) ) (=> (and (>= (+ (* 3 1) (* (- 1) r2 ) ) 0) (>= (+ (* 1 x ) (* (- 1) y ) ) 0) (>= (+ (* 3 1) (* (- 1) r1 ) ) 0) (>= (+ (* (- 1) 1) (* 1 r1 ) ) 0) (>= (+ (* (- 1) 1) (* 1 r2 ) ) 0) ) (>= (+ (* 1 c_150 ) (* 1 c_151 r1 ) (* 1 c_152 r1 r2 ) (* 1 c_153 r1 x ) (* 1 c_154 r1 y ) (* 1 c_155 r1 r1 ) (* 1 c_156 r2 ) (* 1 c_157 r2 x ) (* 1 c_158 r2 y ) (* 1 c_159 r2 r2 ) (* 1 c_160 x ) (* 1 c_161 x y ) (* 1 c_162 x x ) (* 1 c_163 y ) (* 1 c_164 y y ) ) 0) )))
(assert (forall ((r2 Real) (x Real) (y Real) (r1 Real) ) (=> (and (>= (+ (* 3 1) (* (- 1) r2 ) ) 0) (>= (+ (* 1 x ) (* (- 1) y ) ) 0) (>= (+ (* 3 1) (* (- 1) r1 ) ) 0) (>= (+ (* (- 1) 1) (* 1 r1 ) ) 0) (>= (+ (* (- 1) 1) (* 1 r2 ) ) 0) ) (>= (+ (* (- 1) 1) (* (- 1) c_150 ) (* (- 1) c_151 r1 ) (* (- 1) c_152 r1 r2 ) (* 1 c_153 r1 r2 ) (* (- 1) c_153 r1 x ) (* (- 1) c_154 r1 y ) (* (- 1) c_155 r1 r1 ) (* (- 1) c_156 r2 ) (* (- 1) c_157 r2 x ) (* 1 c_157 r2 r2 ) (* (- 1) c_158 r2 y ) (* (- 1) c_159 r2 r2 ) (* 1 c_160 r2 ) (* (- 1) c_160 x ) (* 1 c_161 r2 y ) (* (- 1) c_161 x y ) (* 2 c_162 r2 x ) (* (- 1) c_162 r2 r2 ) (* (- 1) c_162 x x ) (* (- 1) c_163 y ) (* (- 1) c_164 y y ) (* 1 c_75 ) (* 1 c_76 r1 ) (* 1 c_77 r1 r2 ) (* 1 c_78 r1 x ) (* 1 c_79 r1 y ) (* 1 c_80 r1 r1 ) (* 1 c_81 r2 ) (* 1 c_82 r2 x ) (* 1 c_83 r2 y ) (* 1 c_84 r2 r2 ) (* 1 c_85 x ) (* 1 c_86 x y ) (* 1 c_87 x x ) (* 1 c_88 y ) (* 1 c_89 y y ) ) 0) )))
(assert (forall ((r2 Real) (x Real) (y Real) (r1 Real) ) (=> (and (>= (+ (* 3 1) (* (- 1) r2 ) ) 0) (>= (+ (* 1 x ) (* (- 1) y ) ) 0) (>= (+ (* 3 1) (* (- 1) r1 ) ) 0) (>= (+ (* (- 1) 1) (* 1 r1 ) ) 0) (>= (+ (* (- 1) 1) (* 1 r2 ) ) 0) ) (>= (+ (* 1 c_150 ) (* 1 c_151 r1 ) (* 1 c_152 r1 r2 ) (* 1 c_153 r1 x ) (* 1 c_154 r1 y ) (* 1 c_155 r1 r1 ) (* 1 c_156 r2 ) (* 1 c_157 r2 x ) (* 1 c_158 r2 y ) (* 1 c_159 r2 r2 ) (* 1 c_160 x ) (* 1 c_161 x y ) (* 1 c_162 x x ) (* 1 c_163 y ) (* 1 c_164 y y ) ) 0) )))
(assert (forall ((r2 Real) (x Real) (y Real) (r1 Real) ) (=> (and (>= (+ (* 3 1) (* (- 1) r2 ) ) 0) (>= (+ (* 1 x ) (* (- 1) y ) ) 0) (>= (+ (* 3 1) (* (- 1) r1 ) ) 0) (>= (+ (* (- 1) 1) (* 1 r1 ) ) 0) (>= (+ (* (- 1) 1) (* 1 r2 ) ) 0) ) (>= (+ (* (- 1) 1) (* 1 c_100 x ) (* 1 c_101 x y ) (* 1 c_102 x x ) (* 1 c_103 y ) (* 1 c_104 y y ) (* (- 1) c_150 ) (* (- 1) c_151 r1 ) (* (- 1) c_152 r1 r2 ) (* (- 1) c_153 r1 r2 ) (* (- 1) c_153 r1 x ) (* (- 1) c_154 r1 y ) (* (- 1) c_154 r1 r1 ) (* (- 1) c_155 r1 r1 ) (* (- 1) c_156 r2 ) (* (- 1) c_157 r2 x ) (* (- 1) c_157 r2 r2 ) (* (- 1) c_158 r1 r2 ) (* (- 1) c_158 r2 y ) (* (- 1) c_159 r2 r2 ) (* (- 1) c_160 r2 ) (* (- 1) c_160 x ) (* (- 1) c_161 r1 r2 ) (* (- 1) c_161 r1 x ) (* (- 1) c_161 r2 y ) (* (- 1) c_161 x y ) (* (- 2) c_162 r2 x ) (* (- 1) c_162 r2 r2 ) (* (- 1) c_162 x x ) (* (- 1) c_163 r1 ) (* (- 1) c_163 y ) (* (- 2) c_164 r1 y ) (* (- 1) c_164 r1 r1 ) (* (- 1) c_164 y y ) (* 1 c_90 ) (* 1 c_91 r1 ) (* 1 c_92 r1 r2 ) (* 1 c_93 r1 x ) (* 1 c_94 r1 y ) (* 1 c_95 r1 r1 ) (* 1 c_96 r2 ) (* 1 c_97 r2 x ) (* 1 c_98 r2 y ) (* 1 c_99 r2 r2 ) ) 0) )))
(assert (forall ((r2 Real) (x Real) (y Real) (r1 Real) ) (=> (and (>= (+ (* 3 1) (* (- 1) r2 ) ) 0) (>= (+ (* 1 x ) (* (- 1) y ) ) 0) (>= (+ (* 3 1) (* (- 1) r1 ) ) 0) (>= (+ (* (- 1) 1) (* 1 r1 ) ) 0) (>= (+ (* (- 1) 1) (* 1 r2 ) ) 0) ) (>= (+ (* 1 c_150 ) (* 1 c_151 r1 ) (* 1 c_152 r1 r2 ) (* 1 c_153 r1 x ) (* 1 c_154 r1 y ) (* 1 c_155 r1 r1 ) (* 1 c_156 r2 ) (* 1 c_157 r2 x ) (* 1 c_158 r2 y ) (* 1 c_159 r2 r2 ) (* 1 c_160 x ) (* 1 c_161 x y ) (* 1 c_162 x x ) (* 1 c_163 y ) (* 1 c_164 y y ) ) 0) )))
(assert (forall ((r2 Real) (x Real) (y Real) (r1 Real) ) (=> (and (>= (+ (* 3 1) (* (- 1) r2 ) ) 0) (>= (+ (* 1 x ) (* (- 1) y ) ) 0) (>= (+ (* 3 1) (* (- 1) r1 ) ) 0) (>= (+ (* (- 1) 1) (* 1 r1 ) ) 0) (>= (+ (* (- 1) 1) (* 1 r2 ) ) 0) ) (>= (+ (* (- 1) 1) (* 1 c_105 ) (* 1 c_106 r1 ) (* 1 c_107 r1 r2 ) (* 1 c_108 r1 x ) (* 1 c_109 r1 y ) (* 1 c_110 r1 r1 ) (* 1 c_111 r2 ) (* 1 c_112 r2 x ) (* 1 c_113 r2 y ) (* 1 c_114 r2 r2 ) (* 1 c_115 x ) (* 1 c_116 x y ) (* 1 c_117 x x ) (* 1 c_118 y ) (* 1 c_119 y y ) (* (- 1) c_150 ) (* (- 1) c_151 r1 ) (* (- 1) c_152 r1 r2 ) (* (- 1) c_153 r1 r2 ) (* (- 1) c_153 r1 x ) (* (- 1) c_154 r1 y ) (* 1 c_154 r1 r1 ) (* (- 1) c_155 r1 r1 ) (* (- 1) c_156 r2 ) (* (- 1) c_157 r2 x ) (* (- 1) c_157 r2 r2 ) (* 1 c_158 r1 r2 ) (* (- 1) c_158 r2 y ) (* (- 1) c_159 r2 r2 ) (* (- 1) c_160 r2 ) (* (- 1) c_160 x ) (* 1 c_161 r1 r2 ) (* 1 c_161 r1 x ) (* (- 1) c_161 r2 y ) (* (- 1) c_161 x y ) (* (- 2) c_162 r2 x ) (* (- 1) c_162 r2 r2 ) (* (- 1) c_162 x x ) (* 1 c_163 r1 ) (* (- 1) c_163 y ) (* 2 c_164 r1 y ) (* (- 1) c_164 r1 r1 ) (* (- 1) c_164 y y ) ) 0) )))
(assert (forall ((r2 Real) (x Real) (y Real) (r1 Real) ) (=> (and (>= (+ (* 3 1) (* (- 1) r2 ) ) 0) (>= (+ (* 1 x ) (* (- 1) y ) ) 0) (>= (+ (* 3 1) (* (- 1) r1 ) ) 0) (>= (+ (* (- 1) 1) (* 1 r1 ) ) 0) (>= (+ (* (- 1) 1) (* 1 r2 ) ) 0) ) (>= (+ (* 1 c_150 ) (* 1 c_151 r1 ) (* 1 c_152 r1 r2 ) (* 1 c_153 r1 x ) (* 1 c_154 r1 y ) (* 1 c_155 r1 r1 ) (* 1 c_156 r2 ) (* 1 c_157 r2 x ) (* 1 c_158 r2 y ) (* 1 c_159 r2 r2 ) (* 1 c_160 x ) (* 1 c_161 x y ) (* 1 c_162 x x ) (* 1 c_163 y ) (* 1 c_164 y y ) ) 0) )))
(assert (forall ((r2 Real) (x Real) (y Real) (r1 Real) ) (=> (and (>= (+ (* 3 1) (* (- 1) r2 ) ) 0) (>= (+ (* 1 x ) (* (- 1) y ) ) 0) (>= (+ (* 3 1) (* (- 1) r1 ) ) 0) (>= (+ (* (- 1) 1) (* 1 r1 ) ) 0) (>= (+ (* (- 1) 1) (* 1 r2 ) ) 0) ) (>= (+ (* (- 1) 1) (* 1 c_120 ) (* 1 c_121 r1 ) (* 1 c_122 r1 r2 ) (* 1 c_123 r1 x ) (* 1 c_124 r1 y ) (* 1 c_125 r1 r1 ) (* 1 c_126 r2 ) (* 1 c_127 r2 x ) (* 1 c_128 r2 y ) (* 1 c_129 r2 r2 ) (* 1 c_130 x ) (* 1 c_131 x y ) (* 1 c_132 x x ) (* 1 c_133 y ) (* 1 c_134 y y ) (* (- 1) c_150 ) (* (- 1) c_151 r1 ) (* (- 1) c_152 r1 r2 ) (* 1 c_153 r1 r2 ) (* (- 1) c_153 r1 x ) (* (- 1) c_154 r1 y ) (* (- 1) c_154 r1 r1 ) (* (- 1) c_155 r1 r1 ) (* (- 1) c_156 r2 ) (* (- 1) c_157 r2 x ) (* 1 c_157 r2 r2 ) (* (- 1) c_158 r1 r2 ) (* (- 1) c_158 r2 y ) (* (- 1) c_159 r2 r2 ) (* 1 c_160 r2 ) (* (- 1) c_160 x ) (* 1 c_161 r1 r2 ) (* (- 1) c_161 r1 x ) (* 1 c_161 r2 y ) (* (- 1) c_161 x y ) (* 2 c_162 r2 x ) (* (- 1) c_162 r2 r2 ) (* (- 1) c_162 x x ) (* (- 1) c_163 r1 ) (* (- 1) c_163 y ) (* (- 2) c_164 r1 y ) (* (- 1) c_164 r1 r1 ) (* (- 1) c_164 y y ) ) 0) )))
(assert (forall ((r2 Real) (x Real) (y Real) (r1 Real) ) (=> (and (>= (+ (* 3 1) (* (- 1) r2 ) ) 0) (>= (+ (* 1 x ) (* (- 1) y ) ) 0) (>= (+ (* 3 1) (* (- 1) r1 ) ) 0) (>= (+ (* (- 1) 1) (* 1 r1 ) ) 0) (>= (+ (* (- 1) 1) (* 1 r2 ) ) 0) ) (>= (+ (* 1 c_150 ) (* 1 c_151 r1 ) (* 1 c_152 r1 r2 ) (* 1 c_153 r1 x ) (* 1 c_154 r1 y ) (* 1 c_155 r1 r1 ) (* 1 c_156 r2 ) (* 1 c_157 r2 x ) (* 1 c_158 r2 y ) (* 1 c_159 r2 r2 ) (* 1 c_160 x ) (* 1 c_161 x y ) (* 1 c_162 x x ) (* 1 c_163 y ) (* 1 c_164 y y ) ) 0) )))
(assert (forall ((r2 Real) (x Real) (y Real) (r1 Real) ) (=> (and (>= (+ (* 3 1) (* (- 1) r2 ) ) 0) (>= (+ (* 1 x ) (* (- 1) y ) ) 0) (>= (+ (* 3 1) (* (- 1) r1 ) ) 0) (>= (+ (* (- 1) 1) (* 1 r1 ) ) 0) (>= (+ (* (- 1) 1) (* 1 r2 ) ) 0) ) (>= (+ (* (- 1) 1) (* 1 c_135 ) (* 1 c_136 r1 ) (* 1 c_137 r1 r2 ) (* 1 c_138 r1 x ) (* 1 c_139 r1 y ) (* 1 c_140 r1 r1 ) (* 1 c_141 r2 ) (* 1 c_142 r2 x ) (* 1 c_143 r2 y ) (* 1 c_144 r2 r2 ) (* 1 c_145 x ) (* 1 c_146 x y ) (* 1 c_147 x x ) (* 1 c_148 y ) (* 1 c_149 y y ) (* (- 1) c_150 ) (* (- 1) c_151 r1 ) (* (- 1) c_152 r1 r2 ) (* 1 c_153 r1 r2 ) (* (- 1) c_153 r1 x ) (* (- 1) c_154 r1 y ) (* 1 c_154 r1 r1 ) (* (- 1) c_155 r1 r1 ) (* (- 1) c_156 r2 ) (* (- 1) c_157 r2 x ) (* 1 c_157 r2 r2 ) (* 1 c_158 r1 r2 ) (* (- 1) c_158 r2 y ) (* (- 1) c_159 r2 r2 ) (* 1 c_160 r2 ) (* (- 1) c_160 x ) (* (- 1) c_161 r1 r2 ) (* 1 c_161 r1 x ) (* 1 c_161 r2 y ) (* (- 1) c_161 x y ) (* 2 c_162 r2 x ) (* (- 1) c_162 r2 r2 ) (* (- 1) c_162 x x ) (* 1 c_163 r1 ) (* (- 1) c_163 y ) (* 2 c_164 r1 y ) (* (- 1) c_164 r1 r1 ) (* (- 1) c_164 y y ) ) 0) )))
(assert (forall ((r2 Real) (x Real) (y Real) (r1 Real) ) (=> (and (>= (+ (* 3 1) (* (- 1) r2 ) ) 0) (>= (+ (* 1 x ) (* (- 1) y ) ) 0) (>= (+ (* 3 1) (* (- 1) r1 ) ) 0) (>= (+ (* (- 1) 1) (* 1 r1 ) ) 0) (>= (+ (* (- 1) 1) (* 1 r2 ) ) 0) ) (>= (+ (* 1 c_150 ) (* 1 c_151 r1 ) (* 1 c_152 r1 r2 ) (* 1 c_153 r1 x ) (* 1 c_154 r1 y ) (* 1 c_155 r1 r1 ) (* 1 c_156 r2 ) (* 1 c_157 r2 x ) (* 1 c_158 r2 y ) (* 1 c_159 r2 r2 ) (* 1 c_160 x ) (* 1 c_161 x y ) (* 1 c_162 x x ) (* 1 c_163 y ) (* 1 c_164 y y ) ) 0) )))
(assert (forall ((r2 Real) (x Real) (y Real) (r1 Real) ) (=> (and (>= (+ (* (- 1) 1) (* 1 r1 ) ) 0) (>= (+ (* 1 r1 ) (* 1 r2 ) (* 1 x ) (* (- 1) y ) ) 0) (>= (+ (* (- 1) 1) (* 1 r2 ) ) 0) (>= (+ (* 3 1) (* (- 1) r2 ) ) 0) (>= (+ (* 3 1) (* (- 1) r1 ) ) 0) ) (>= (+ (* (- 1) 1) (* (- 1) c_0 ) (* (- 1) c_1 r1 ) (* (- 1) c_10 x ) (* (- 1) c_11 x y ) (* (- 1) c_12 x x ) (* (- 1) c_13 y ) (* (- 1) c_14 y y ) (* 1 c_150 ) (* 1 c_151 r1 ) (* 1 c_152 r1 r2 ) (* 1 c_153 r1 x ) (* 1 c_154 r1 y ) (* 1 c_155 r1 r1 ) (* 1 c_156 r2 ) (* 1 c_157 r2 x ) (* 1 c_158 r2 y ) (* 1 c_159 r2 r2 ) (* 1 c_160 x ) (* 1 c_161 x y ) (* 1 c_162 x x ) (* 1 c_163 y ) (* 1 c_164 y y ) (* (- 1) c_2 r1 r2 ) (* (- 1) c_3 r1 x ) (* (- 1) c_4 r1 y ) (* (- 1) c_5 r1 r1 ) (* (- 1) c_6 r2 ) (* (- 1) c_7 r2 x ) (* (- 1) c_8 r2 y ) (* (- 1) c_9 r2 r2 ) ) 0) )))
(assert (forall ((r2 Real) (x Real) (y Real) (r1 Real) ) (=> (and (>= (+ (* (- 1) 1) (* 1 r1 ) ) 0) (>= (+ (* 1 r1 ) (* 1 r2 ) (* 1 x ) (* (- 1) y ) ) 0) (>= (+ (* (- 1) 1) (* 1 r2 ) ) 0) (>= (+ (* 3 1) (* (- 1) r2 ) ) 0) (>= (+ (* 3 1) (* (- 1) r1 ) ) 0) ) (>= (+ (* 1 c_0 ) (* 1 c_1 r1 ) (* 1 c_10 x ) (* 1 c_11 x y ) (* 1 c_12 x x ) (* 1 c_13 y ) (* 1 c_14 y y ) (* 1 c_2 r1 r2 ) (* 1 c_3 r1 x ) (* 1 c_4 r1 y ) (* 1 c_5 r1 r1 ) (* 1 c_6 r2 ) (* 1 c_7 r2 x ) (* 1 c_8 r2 y ) (* 1 c_9 r2 r2 ) ) 0) )))
(assert (forall ((r2 Real) (x Real) (y Real) (r1 Real) ) (=> (and (>= (+ (* 3 1) (* (- 1) r2 ) ) 0) (>= (+ (* 1 x ) (* (- 1) y ) ) 0) (>= (+ (* 3 1) (* (- 1) r1 ) ) 0) (>= (+ (* (- 1) 1) (* 1 r1 ) ) 0) (>= (+ (* (- 1) 1) (* 1 r2 ) ) 0) ) (>= (+ (* (- 1) 1) (* (- 1) c_150 ) (* (- 1) c_151 r1 ) (* (- 1) c_152 r1 r2 ) (* (- 1) c_153 r1 x ) (* (- 1) c_154 r1 y ) (* 1 c_154 r1 r1 ) (* (- 1) c_155 r1 r1 ) (* (- 1) c_156 r2 ) (* (- 1) c_157 r2 x ) (* 1 c_158 r1 r2 ) (* (- 1) c_158 r2 y ) (* (- 1) c_159 r2 r2 ) (* (- 1) c_160 x ) (* 1 c_161 r1 x ) (* (- 1) c_161 x y ) (* (- 1) c_162 x x ) (* 1 c_163 r1 ) (* (- 1) c_163 y ) (* 2 c_164 r1 y ) (* (- 1) c_164 r1 r1 ) (* (- 1) c_164 y y ) (* 1 c_180 ) (* 1 c_181 r1 ) (* 1 c_182 r1 r2 ) (* 1 c_183 r1 x ) (* 1 c_184 r1 y ) (* 1 c_185 r1 r1 ) (* 1 c_186 r2 ) (* 1 c_187 r2 x ) (* 1 c_188 r2 y ) (* 1 c_189 r2 r2 ) (* 1 c_190 x ) (* 1 c_191 x y ) (* 1 c_192 x x ) (* 1 c_193 y ) (* 1 c_194 y y ) ) 0) )))
(assert (forall ((r2 Real) (x Real) (y Real) (r1 Real) ) (=> (and (>= (+ (* 3 1) (* (- 1) r2 ) ) 0) (>= (+ (* 1 x ) (* (- 1) y ) ) 0) (>= (+ (* 3 1) (* (- 1) r1 ) ) 0) (>= (+ (* (- 1) 1) (* 1 r1 ) ) 0) (>= (+ (* (- 1) 1) (* 1 r2 ) ) 0) ) (>= (+ (* 1 c_150 ) (* 1 c_151 r1 ) (* 1 c_152 r1 r2 ) (* 1 c_153 r1 x ) (* 1 c_154 r1 y ) (* 1 c_155 r1 r1 ) (* 1 c_156 r2 ) (* 1 c_157 r2 x ) (* 1 c_158 r2 y ) (* 1 c_159 r2 r2 ) (* 1 c_160 x ) (* 1 c_161 x y ) (* 1 c_162 x x ) (* 1 c_163 y ) (* 1 c_164 y y ) ) 0) )))
(assert (forall ((r2 Real) (x Real) (y Real) (r1 Real) ) (=> (and (>= (+ (* 1 x ) (* (- 1) y ) ) 0) (>= (+ (* 3 1) (* (- 1) r2 ) ) 0) (>= (+ (* 3 1) (* (- 1) r1 ) ) 0) (>= (+ (* (- 1) 1) (* 1 r1 ) ) 0) (>= (* 1 r2 ) 0) ) (>= (+ (* (- 1) 1) (* 1 c_195 ) (* 1 c_196 r1 ) (* 1 c_197 r1 r2 ) (* 1 c_198 r1 x ) (* 1 c_199 r1 y ) (* 1 c_200 r1 r1 ) (* 1 c_201 r2 ) (* 1 c_202 r2 x ) (* 1 c_203 r2 y ) (* 1 c_204 r2 r2 ) (* 1 c_205 x ) (* 1 c_206 x y ) (* 1 c_207 x x ) (* 1 c_208 y ) (* 1 c_209 y y ) (* (- 1) c_30 ) (* (- 1) c_31 r1 ) (* (- 2) c_32 r1 ) (* (- 1) c_33 r1 x ) (* (- 1) c_34 r1 y ) (* (- 1) c_35 r1 r1 ) (* (- 2) c_36 ) (* (- 2) c_37 x ) (* (- 2) c_38 y ) (* (/ (- 14) 3) c_39 ) (* (- 1) c_40 x ) (* (- 1) c_41 x y ) (* (- 1) c_42 x x ) (* (- 1) c_43 y ) (* (- 1) c_44 y y ) ) 0) )))
(assert (forall ((r2 Real) (x Real) (y Real) (r1 Real) ) (=> (and (>= (+ (* 1 x ) (* (- 1) y ) ) 0) (>= (+ (* 3 1) (* (- 1) r2 ) ) 0) (>= (+ (* 3 1) (* (- 1) r1 ) ) 0) (>= (+ (* (- 1) 1) (* 1 r1 ) ) 0) (>= (* 1 r2 ) 0) ) (>= (+ (* 1 c_30 ) (* 1 c_31 r1 ) (* 2 c_32 r1 ) (* 1 c_33 r1 x ) (* 1 c_34 r1 y ) (* 1 c_35 r1 r1 ) (* 2 c_36 ) (* 2 c_37 x ) (* 2 c_38 y ) (* (/ 14 3) c_39 ) (* 1 c_40 x ) (* 1 c_41 x y ) (* 1 c_42 x x ) (* 1 c_43 y ) (* 1 c_44 y y ) ) 0) )))
(check-sat)
(get-model)

